networks/zoo_86_724/zoo_86_724.txt
Number of groups: 46.999999999499998
Flow 1: {35 3} {3 46} 
Flow 38: {2 1} {1 5} {5 32} {32 16} 
Flow 40: {2 7} {7 8} {8 28} {28 27} {27 70} 
Flow 63: {14 13} {13 24} {24 67} 
Flow 82: {4 5} {5 48} 
Flow 96: {4 35} {35 78} 
Flow 121: {6 32} {32 10} {10 53} 
Flow 140: {36 37} {37 38} {38 81} 
Flow 146: {10 32} {32 5} {5 4} {4 47} 
Flow 150: {27 28} {28 8} {8 51} 
Flow 153: {10 16} {16 59} 
Flow 185: {11 12} {12 19} {19 62} 
Flow 210: {43 34} {34 24} {24 13} {13 56} 
Flow 212: {19 18} {18 17} {17 60} 
Flow 230: {12 11} {11 20} {20 43} {43 42} {42 85} 
Flow 239: {34 17} {17 18} {18 19} {19 12} {12 55} 
Flow 243: {24 34} {34 43} {43 20} {20 63} 
Flow 245: {21 23} {23 66} 
Flow 250: {13 14} {14 3} {3 33} {33 31} {31 74} 
Flow 269: {15 3} {3 35} {35 1} {1 34} {34 77} 
Flow 286: {16 10} {10 27} {27 29} {29 72} 
Flow 287: {16 32} {32 31} 
Flow 317: {17 34} {34 1} {1 7} {7 50} 
Flow 370: {22 21} {21 33} {33 3} 
Flow 391: {23 32} {32 6} {6 9} {9 36} {36 79} 
Flow 405: {25 33} {33 21} {21 64} 
Flow 415: {26 28} {28 71} 
Flow 419: {8 7} {7 1} {1 44} 
Flow 426: {27 10} 
Flow 456: {29 28} {28 32} {32 33} {33 76} 
Flow 466: {30 33} {33 41} {41 42} {42 43} {43 86} 
Flow 484: {31 32} {32 28} {28 29} 
Flow 490: {31 33} {33 38} {38 37} {37 80} 
Flow 497: {5 1} {1 2} {2 45} 
Flow 504: {9 52} 
Flow 506: {20 11} {11 54} 
Flow 510: {3 15} {15 58} 
Flow 516: {32 23} {23 21} {21 22} {22 65} 
Flow 548: {3 14} {14 57} 
Flow 571: {33 40} {40 83} 
Flow 577: {1 35} {35 4} 
Flow 606: {42 41} {41 84} 
Flow 613: {37 36} {36 9} {9 6} {6 49} 
Flow 633: {38 33} {33 39} {39 82} 
Flow 660: {39 33} {33 32} {32 75} 
Flow 667: {32 10} {10 53} 
Flow 709: {28 26} {26 69} 
Flow 713: {41 33} {33 30} {30 73} 
Time taken running everything: 36 seconds
