networks/zoo_86_724/standard/zoo_86_724.sol
<?xml version = "1.0" encoding="UTF-8" standalone="yes"?>
<CPLEXSolution version="1.2">
 <header
   problemName="networks/zoo_86_724/zoo_86_724.lp"
   solutionName="incumbent"
   solutionIndex="-1"
   objectiveValue="47"
   solutionTypeValue="3"
   solutionTypeString="primal"
   solutionStatusValue="101"
   solutionStatusString="integer optimal solution"
   solutionMethodString="mip"
   primalFeasible="1"
   dualFeasible="1"
   MIPNodes="0"
   MIPIterations="33728"
   writeLevel="3"/>
 <quality
   epInt="1.0000000000000001e-05"
   epRHS="9.9999999999999995e-07"
   maxIntInfeas="0"
   maxPrimalInfeas="8.8817841970012523e-16"
   maxX="4"
   maxSlack="10"/>
 <variables>
  <variable name="Y(17,26)" index="1369" value="1"/>
  <variable name="Y(21,30)" index="1709" value="1"/>
  <variable name="Y(31,41)" index="2560" value="1"/>
  <variable name="Y(38,32)" index="3139" value="1"/>
  <variable name="Y(40,27)" index="3302" value="1"/>
  <variable name="Y(82,5)" index="6808" value="1"/>
  <variable name="Y(92,29)" index="7672" value="1"/>
  <variable name="Y(96,35)" index="8014" value="1"/>
  <variable name="Y(133,31)" index="11118" value="1"/>
  <variable name="Y(140,38)" index="11713" value="1"/>
  <variable name="Y(150,8)" index="12523" value="1"/>
  <variable name="Y(153,16)" index="12783" value="1"/>
  <variable name="Y(168,36)" index="14063" value="1"/>
  <variable name="Y(185,19)" index="15474" value="1"/>
  <variable name="Y(212,17)" index="17740" value="1"/>
  <variable name="Y(230,42)" index="19277" value="1"/>
  <variable name="Y(239,12)" index="20003" value="1"/>
  <variable name="Y(243,20)" index="20347" value="1"/>
  <variable name="Y(245,23)" index="20518" value="1"/>
  <variable name="Y(254,14)" index="21265" value="1"/>
  <variable name="Y(269,34)" index="22545" value="1"/>
  <variable name="Y(286,27)" index="23966" value="1"/>
  <variable name="Y(295,39)" index="24734" value="1"/>
  <variable name="Y(304,13)" index="25464" value="1"/>
  <variable name="Y(370,3)" index="30998" value="1"/>
  <variable name="Y(378,7)" index="31674" value="1"/>
  <variable name="Y(411,43)" index="34482" value="1"/>
  <variable name="Y(415,28)" index="34803" value="1"/>
  <variable name="Y(419,1)" index="35112" value="1"/>
  <variable name="Y(421,4)" index="35283" value="1"/>
  <variable name="Y(426,27)" index="35726" value="1"/>
  <variable name="Y(453,21)" index="37988" value="1"/>
  <variable name="Y(464,33)" index="38924" value="1"/>
  <variable name="Y(473,10)" index="39657" value="1"/>
  <variable name="Y(490,37)" index="41112" value="1"/>
  <variable name="Y(497,2)" index="41665" value="1"/>
  <variable name="Y(506,11)" index="42430" value="1"/>
  <variable name="Y(510,15)" index="42770" value="1"/>
  <variable name="Y(543,9)" index="45536" value="1"/>
  <variable name="Y(548,14)" index="45961" value="1"/>
  <variable name="Y(571,40)" index="47919" value="1"/>
  <variable name="Y(613,6)" index="51413" value="1"/>
  <variable name="Y(622,24)" index="52187" value="1"/>
  <variable name="Y(626,33)" index="52532" value="1"/>
  <variable name="Y(660,32)" index="55387" value="1"/>
  <variable name="Y(693,35)" index="58162" value="1"/>
  <variable name="Y(706,22)" index="59241" value="1"/>
  <variable name="X(1,2,497)" index="61312" value="1"/>
  <variable name="X(1,5,38)" index="61577" value="1"/>
  <variable name="X(1,7,378)" index="62641" value="1"/>
  <variable name="X(1,34,269)" index="63256" value="1"/>
  <variable name="X(1,35,693)" index="64404" value="1"/>
  <variable name="X(1,44,419)" index="64854" value="1"/>
  <variable name="X(2,1,38)" index="65197" value="1"/>
  <variable name="X(2,7,40)" index="65923" value="1"/>
  <variable name="X(2,45,497)" index="67104" value="1"/>
  <variable name="X(3,14,622)" index="67953" value="1"/>
  <variable name="X(3,15,510)" index="68565" value="1"/>
  <variable name="X(3,33,21)" index="68800" value="1"/>
  <variable name="X(3,35,269)" index="69772" value="1"/>
  <variable name="X(3,46,370)" index="70597" value="1"/>
  <variable name="X(4,5,82)" index="71033" value="1"/>
  <variable name="X(4,35,96)" index="71771" value="1"/>
  <variable name="X(4,47,421)" index="72820" value="1"/>
  <variable name="X(5,1,378)" index="73501" value="1"/>
  <variable name="X(5,4,421)" index="74268" value="1"/>
  <variable name="X(5,32,38)" index="74609" value="1"/>
  <variable name="X(5,48,82)" index="75377" value="1"/>
  <variable name="X(6,9,168)" index="76187" value="1"/>
  <variable name="X(6,32,133)" index="76876" value="1"/>
  <variable name="X(6,49,613)" index="78080" value="1"/>
  <variable name="X(7,1,419)" index="78610" value="1"/>
  <variable name="X(7,8,40)" index="78955" value="1"/>
  <variable name="X(7,50,378)" index="80017" value="1"/>
  <variable name="X(8,7,419)" index="80782" value="1"/>
  <variable name="X(8,28,40)" index="81127" value="1"/>
  <variable name="X(8,51,150)" index="81961" value="1"/>
  <variable name="X(9,6,613)" index="83148" value="1"/>
  <variable name="X(9,36,168)" index="83427" value="1"/>
  <variable name="X(9,52,543)" index="84526" value="1"/>
  <variable name="X(10,16,153)" index="84860" value="1"/>
  <variable name="X(10,27,286)" index="85717" value="1"/>
  <variable name="X(10,32,168)" index="86323" value="1"/>
  <variable name="X(10,53,473)" index="87352" value="1"/>
  <variable name="X(11,12,185)" index="87788" value="1"/>
  <variable name="X(11,20,230)" index="88557" value="1"/>
  <variable name="X(11,54,506)" index="89557" value="1"/>
  <variable name="X(12,11,230)" index="90005" value="1"/>
  <variable name="X(12,19,185)" index="90684" value="1"/>
  <variable name="X(12,55,239)" index="91462" value="1"/>
  <variable name="X(13,14,254)" index="92201" value="1"/>
  <variable name="X(13,24,622)" index="93293" value="1"/>
  <variable name="X(13,56,304)" index="93699" value="1"/>
  <variable name="X(14,3,254)" index="94373" value="1"/>
  <variable name="X(14,13,622)" index="95465" value="1"/>
  <variable name="X(14,57,548)" index="96115" value="1"/>
  <variable name="X(15,3,269)" index="96560" value="1"/>
  <variable name="X(15,58,510)" index="97525" value="1"/>
  <variable name="X(16,10,286)" index="98025" value="1"/>
  <variable name="X(16,32,295)" index="98758" value="1"/>
  <variable name="X(16,59,153)" index="99340" value="1"/>
  <variable name="X(17,18,239)" index="100150" value="1"/>
  <variable name="X(17,34,304)" index="100939" value="1"/>
  <variable name="X(17,60,212)" index="101571" value="1"/>
  <variable name="X(18,17,212)" index="102295" value="1"/>
  <variable name="X(18,19,239)" index="103046" value="1"/>
  <variable name="X(19,12,239)" index="103770" value="1"/>
  <variable name="X(19,18,212)" index="104467" value="1"/>
  <variable name="X(19,62,185)" index="105164" value="1"/>
  <variable name="X(20,11,506)" index="106209" value="1"/>
  <variable name="X(20,43,230)" index="106657" value="1"/>
  <variable name="X(20,63,243)" index="107394" value="1"/>
  <variable name="X(21,22,706)" index="108581" value="1"/>
  <variable name="X(21,23,245)" index="108844" value="1"/>
  <variable name="X(21,33,370)" index="109693" value="1"/>
  <variable name="X(21,64,453)" index="110500" value="1"/>
  <variable name="X(22,21,370)" index="111141" value="1"/>
  <variable name="X(22,65,706)" index="112201" value="1"/>
  <variable name="X(23,21,453)" index="112672" value="1"/>
  <variable name="X(23,32,378)" index="113321" value="1"/>
  <variable name="X(23,66,245)" index="113912" value="1"/>
  <variable name="X(24,13,304)" index="114695" value="1"/>
  <variable name="X(24,34,243)" index="115358" value="1"/>
  <variable name="X(24,67,622)" index="116461" value="1"/>
  <variable name="X(25,33,411)" index="116974" value="1"/>
  <variable name="X(26,28,415)" index="117702" value="1"/>
  <variable name="X(26,69,17)" index="118028" value="1"/>
  <variable name="X(27,10,426)" index="119161" value="1"/>
  <variable name="X(27,28,150)" index="119609" value="1"/>
  <variable name="X(27,29,286)" index="120469" value="1"/>
  <variable name="X(27,70,40)" index="120947" value="1"/>
  <variable name="X(28,8,150)" index="121781" value="1"/>
  <variable name="X(28,26,17)" index="122372" value="1"/>
  <variable name="X(28,27,40)" index="123119" value="1"/>
  <variable name="X(28,29,92)" index="123895" value="1"/>
  <variable name="X(28,32,453)" index="124980" value="1"/>
  <variable name="X(28,71,415)" index="125666" value="1"/>
  <variable name="X(29,28,453)" index="126428" value="1"/>
  <variable name="X(29,72,92)" index="126791" value="1"/>
  <variable name="X(30,33,464)" index="127887" value="1"/>
  <variable name="X(30,73,21)" index="128168" value="1"/>
  <variable name="X(31,32,473)" index="129344" value="1"/>
  <variable name="X(31,33,490)" index="130085" value="1"/>
  <variable name="X(31,74,133)" index="130452" value="1"/>
  <variable name="X(32,5,378)" index="131421" value="1"/>
  <variable name="X(32,6,168)" index="131935" value="1"/>
  <variable name="X(32,10,473)" index="132964" value="1"/>
  <variable name="X(32,16,38)" index="133253" value="1"/>
  <variable name="X(32,23,453)" index="134392" value="1"/>
  <variable name="X(32,28,92)" index="134755" value="1"/>
  <variable name="X(32,31,133)" index="135520" value="1"/>
  <variable name="X(32,33,295)" index="136406" value="1"/>
  <variable name="X(32,75,660)" index="137495" value="1"/>
  <variable name="X(33,3,370)" index="137929" value="1"/>
  <variable name="X(33,21,706)" index="138989" value="1"/>
  <variable name="X(33,30,21)" index="139028" value="1"/>
  <variable name="X(33,31,626)" index="140357" value="1"/>
  <variable name="X(33,32,660)" index="141115" value="1"/>
  <variable name="X(33,38,490)" index="141669" value="1"/>
  <variable name="X(33,39,295)" index="142198" value="1"/>
  <variable name="X(33,40,571)" index="143198" value="1"/>
  <variable name="X(33,41,411)" index="143762" value="1"/>
  <variable name="X(33,76,464)" index="144539" value="1"/>
  <variable name="X(34,1,693)" index="145492" value="1"/>
  <variable name="X(34,17,239)" index="145762" value="1"/>
  <variable name="X(34,24,304)" index="146551" value="1"/>
  <variable name="X(34,43,243)" index="147214" value="1"/>
  <variable name="X(34,77,269)" index="147964" value="1"/>
  <variable name="X(35,1,269)" index="148688" value="1"/>
  <variable name="X(35,3,21)" index="149164" value="1"/>
  <variable name="X(35,4,693)" index="150560" value="1"/>
  <variable name="X(35,78,96)" index="150687" value="1"/>
  <variable name="X(36,9,613)" index="151928" value="1"/>
  <variable name="X(36,37,140)" index="152179" value="1"/>
  <variable name="X(36,79,168)" index="152931" value="1"/>
  <variable name="X(37,36,613)" index="154100" value="1"/>
  <variable name="X(37,38,140)" index="154351" value="1"/>
  <variable name="X(37,80,490)" index="155425" value="1"/>
  <variable name="X(38,33,626)" index="156285" value="1"/>
  <variable name="X(38,37,490)" index="156873" value="1"/>
  <variable name="X(38,81,140)" index="157247" value="1"/>
  <variable name="X(39,33,660)" index="158491" value="1"/>
  <variable name="X(39,82,295)" index="158850" value="1"/>
  <variable name="X(40,83,571)" index="159850" value="1"/>
  <variable name="X(41,33,706)" index="160709" value="1"/>
  <variable name="X(41,42,411)" index="161138" value="1"/>
  <variable name="X(41,84,31)" index="161482" value="1"/>
  <variable name="X(42,41,31)" index="162206" value="1"/>
  <variable name="X(42,43,411)" index="163310" value="1"/>
  <variable name="X(42,85,230)" index="163853" value="1"/>
  <variable name="X(43,20,243)" index="164590" value="1"/>
  <variable name="X(43,34,693)" index="165764" value="1"/>
  <variable name="X(43,42,230)" index="166025" value="1"/>
  <variable name="X(43,86,411)" index="166930" value="1"/>
  <variable name="C(17,26)" index="167307" value="1"/>
  <variable name="C(21,3)" index="167324" value="1"/>
  <variable name="C(21,33)" index="167325" value="2"/>
  <variable name="C(21,30)" index="167326" value="3"/>
  <variable name="C(31,41)" index="167368" value="1"/>
  <variable name="C(38,1)" index="167393" value="1"/>
  <variable name="C(38,5)" index="167394" value="2"/>
  <variable name="C(38,32)" index="167395" value="3"/>
  <variable name="C(40,7)" index="167404" value="1"/>
  <variable name="C(40,8)" index="167405" value="2"/>
  <variable name="C(40,28)" index="167406" value="3"/>
  <variable name="C(40,27)" index="167407" value="4"/>
  <variable name="C(82,5)" index="167573" value="1"/>
  <variable name="C(92,28)" index="167617" value="1"/>
  <variable name="C(92,29)" index="167618" value="2"/>
  <variable name="C(96,35)" index="167631" value="1"/>
  <variable name="C(133,32)" index="167802" value="1"/>
  <variable name="C(133,31)" index="167803" value="1.9999999999999991"/>
  <variable name="C(140,37)" index="167830" value="1"/>
  <variable name="C(140,38)" index="167831" value="2"/>
  <variable name="C(150,28)" index="167876" value="1"/>
  <variable name="C(150,8)" index="167877" value="2"/>
  <variable name="C(153,16)" index="167894" value="1"/>
  <variable name="C(168,32)" index="167956" value="1"/>
  <variable name="C(168,6)" index="167957" value="2"/>
  <variable name="C(168,9)" index="167958" value="3"/>
  <variable name="C(168,36)" index="167959" value="4"/>
  <variable name="C(185,12)" index="168052" value="1"/>
  <variable name="C(185,19)" index="168053" value="2"/>
  <variable name="C(212,18)" index="168239" value="1"/>
  <variable name="C(212,17)" index="168240" value="2"/>
  <variable name="C(230,11)" index="168372" value="1"/>
  <variable name="C(230,20)" index="168373" value="2"/>
  <variable name="C(230,43)" index="168374" value="3"/>
  <variable name="C(230,42)" index="168375" value="4"/>
  <variable name="C(239,17)" index="168419" value="1"/>
  <variable name="C(239,18)" index="168420" value="2"/>
  <variable name="C(239,19)" index="168421" value="3"/>
  <variable name="C(239,12)" index="168422" value="4"/>
  <variable name="C(243,34)" index="168441" value="1"/>
  <variable name="C(243,43)" index="168442" value="2"/>
  <variable name="C(243,20)" index="168443" value="3"/>
  <variable name="C(245,23)" index="168454" value="0.99999999999999978"/>
  <variable name="C(254,14)" index="168495" value="1"/>
  <variable name="C(269,3)" index="168565" value="1"/>
  <variable name="C(269,35)" index="168566" value="1.9999999999999996"/>
  <variable name="C(269,1)" index="168567" value="2.9999999999999996"/>
  <variable name="C(269,34)" index="168568" value="3.9999999999999996"/>
  <variable name="C(286,10)" index="168645" value="1"/>
  <variable name="C(286,27)" index="168646" value="2"/>
  <variable name="C(295,32)" index="168681" value="1"/>
  <variable name="C(295,33)" index="168682" value="2"/>
  <variable name="C(295,39)" index="168683" value="3"/>
  <variable name="C(304,34)" index="168725" value="1"/>
  <variable name="C(304,24)" index="168726" value="2"/>
  <variable name="C(304,13)" index="168727" value="3"/>
  <variable name="C(370,21)" index="169077" value="1"/>
  <variable name="C(370,33)" index="169078" value="2"/>
  <variable name="C(370,3)" index="169079" value="3"/>
  <variable name="C(378,32)" index="169110" value="1"/>
  <variable name="C(378,5)" index="169111" value="2"/>
  <variable name="C(378,1)" index="169112" value="3"/>
  <variable name="C(378,7)" index="169113" value="4"/>
  <variable name="C(411,33)" index="169252" value="1"/>
  <variable name="C(411,41)" index="169253" value="2"/>
  <variable name="C(411,42)" index="169254" value="3"/>
  <variable name="C(411,43)" index="169255" value="4"/>
  <variable name="C(415,28)" index="169271" value="1"/>
  <variable name="C(419,7)" index="169287" value="1"/>
  <variable name="C(419,1)" index="169288" value="2"/>
  <variable name="C(421,4)" index="169296" value="1"/>
  <variable name="C(453,28)" index="169430" value="1"/>
  <variable name="C(453,32)" index="169431" value="2"/>
  <variable name="C(453,23)" index="169432" value="3"/>
  <variable name="C(453,21)" index="169433" value="4"/>
  <variable name="C(464,33)" index="169474" value="1"/>
  <variable name="C(473,32)" index="169509" value="1"/>
  <variable name="C(473,10)" index="169510" value="2"/>
  <variable name="C(490,33)" index="169583" value="1"/>
  <variable name="C(490,38)" index="169584" value="2"/>
  <variable name="C(490,37)" index="169585" value="3"/>
  <variable name="C(497,2)" index="169610" value="1"/>
  <variable name="C(506,11)" index="169639" value="1"/>
  <variable name="C(510,15)" index="169660" value="1"/>
  <variable name="C(571,40)" index="169883" value="1"/>
  <variable name="C(613,36)" index="170064" value="1"/>
  <variable name="C(613,9)" index="170065" value="2"/>
  <variable name="C(613,6)" index="170066" value="3"/>
  <variable name="C(622,14)" index="170125" value="1"/>
  <variable name="C(622,13)" index="170126" value="2"/>
  <variable name="C(622,24)" index="170127" value="3"/>
  <variable name="C(626,33)" index="170147" value="1"/>
  <variable name="C(660,33)" index="170295" value="1"/>
  <variable name="C(660,32)" index="170296" value="2"/>
  <variable name="C(693,34)" index="170430" value="1"/>
  <variable name="C(693,1)" index="170431" value="2"/>
  <variable name="C(693,35)" index="170432" value="3"/>
  <variable name="C(706,33)" index="170491" value="1"/>
  <variable name="C(706,21)" index="170492" value="2"/>
  <variable name="C(706,22)" index="170493" value="3"/>
 </variables>
</CPLEXSolution>
